p cnf 13 21
-13 -12 -11 0
-13 -11 5 0
-13 -10 9 0
-13 10 3 0
13 9 5 0
-12 11 8 0
-12 11 -5 0
-12 11 2 0
12 9 4 0
-12 -9 -3 0
12 9 1 0
12 5 -2 0
12 -3 2 0
-11 9 3 0
11 -8 -6 0
-11 6 -3 0
9 -8 5 0
9 -3 -1 0
-8 6 -2 0
-7 -6 -4 0
-7 -5 -2 0
